c Reduced graph for r28_0 generated by Cyril Grelier
p edge 288 3765
e 1 2
e 1 3
e 1 4
e 1 5
e 1 6
e 1 8
e 1 9
e 1 11
e 1 13
e 1 14
e 1 15
e 1 16
e 1 21
e 1 26
e 1 27
e 1 28
e 1 29
e 1 38
e 1 39
e 1 41
e 1 43
e 1 44
e 1 45
e 1 57
e 1 77
e 1 99
e 1 100
e 1 101
e 1 102
e 1 103
e 1 104
e 1 122
e 1 146
e 1 172
e 2 3
e 2 4
e 2 5
e 2 8
e 2 9
e 2 11
e 2 17
e 2 18
e 2 19
e 2 20
e 2 21
e 2 26
e 2 27
e 2 28
e 2 29
e 2 38
e 2 39
e 2 41
e 2 46
e 2 47
e 2 48
e 2 49
e 2 50
e 2 57
e 2 77
e 2 78
e 2 105
e 2 106
e 2 107
e 2 108
e 2 122
e 2 148
e 2 175
e 3 4
e 3 5
e 3 7
e 3 8
e 3 9
e 3 11
e 3 21
e 3 22
e 3 23
e 3 24
e 3 25
e 3 26
e 3 27
e 3 28
e 3 29
e 3 38
e 3 39
e 3 41
e 3 52
e 3 53
e 3 54
e 3 55
e 3 57
e 3 77
e 3 83
e 3 112
e 3 113
e 3 114
e 3 115
e 3 122
e 3 154
e 3 180
e 4 5
e 4 8
e 4 9
e 4 10
e 4 11
e 4 21
e 4 26
e 4 27
e 4 28
e 4 29
e 4 30
e 4 31
e 4 32
e 4 33
e 4 38
e 4 39
e 4 41
e 4 57
e 4 67
e 4 68
e 4 69
e 4 70
e 4 77
e 4 122
e 4 133
e 4 134
e 4 135
e 4 136
e 4 137
e 4 202
e 5 8
e 5 9
e 5 11
e 5 12
e 5 21
e 5 26
e 5 27
e 5 28
e 5 29
e 5 34
e 5 35
e 5 36
e 5 37
e 5 38
e 5 39
e 5 41
e 5 57
e 5 74
e 5 75
e 5 76
e 5 77
e 5 98
e 5 122
e 5 141
e 5 142
e 5 143
e 5 144
e 5 145
e 5 171
e 6 7
e 6 10
e 6 12
e 6 13
e 6 14
e 6 15
e 6 16
e 6 40
e 6 42
e 6 43
e 6 44
e 6 45
e 6 51
e 6 56
e 6 58
e 6 63
e 6 82
e 6 87
e 6 91
e 6 99
e 6 100
e 6 101
e 6 102
e 6 103
e 6 104
e 6 118
e 6 146
e 6 147
e 6 172
e 6 189
e 6 243
e 7 10
e 7 12
e 7 22
e 7 23
e 7 24
e 7 25
e 7 40
e 7 42
e 7 51
e 7 52
e 7 53
e 7 54
e 7 55
e 7 56
e 7 58
e 7 63
e 7 82
e 7 83
e 7 87
e 7 91
e 7 112
e 7 113
e 7 114
e 7 115
e 7 118
e 7 147
e 7 154
e 7 180
e 7 189
e 7 243
e 8 9
e 8 11
e 8 21
e 8 26
e 8 27
e 8 28
e 8 29
e 8 38
e 8 39
e 8 40
e 8 41
e 8 57
e 8 59
e 8 60
e 8 61
e 8 62
e 8 77
e 8 122
e 8 123
e 8 124
e 8 125
e 8 126
e 8 164
e 8 190
e 8 191
e 8 227
e 8 255
e 9 11
e 9 21
e 9 26
e 9 27
e 9 28
e 9 29
e 9 38
e 9 39
e 9 41
e 9 57
e 9 64
e 9 65
e 9 66
e 9 77
e 9 122
e 9 129
e 9 130
e 9 131
e 9 132
e 9 197
e 9 198
e 9 199
e 9 200
e 9 201
e 9 239
e 10 12
e 10 30
e 10 31
e 10 32
e 10 33
e 10 40
e 10 42
e 10 51
e 10 56
e 10 58
e 10 63
e 10 67
e 10 68
e 10 69
e 10 70
e 10 82
e 10 87
e 10 91
e 10 118
e 10 133
e 10 134
e 10 135
e 10 136
e 10 137
e 10 147
e 10 189
e 10 202
e 10 243
e 11 21
e 11 26
e 11 27
e 11 28
e 11 29
e 11 38
e 11 39
e 11 41
e 11 42
e 11 57
e 11 71
e 11 72
e 11 73
e 11 77
e 11 122
e 11 138
e 11 139
e 11 140
e 11 170
e 11 203
e 11 204
e 11 205
e 11 206
e 11 207
e 12 34
e 12 35
e 12 36
e 12 37
e 12 40
e 12 42
e 12 51
e 12 56
e 12 58
e 12 63
e 12 74
e 12 75
e 12 76
e 12 82
e 12 87
e 12 91
e 12 98
e 12 118
e 12 141
e 12 142
e 12 143
e 12 144
e 12 145
e 12 147
e 12 171
e 12 189
e 12 243
e 13 14
e 13 15
e 13 16
e 13 17
e 13 22
e 13 30
e 13 34
e 13 43
e 13 44
e 13 45
e 13 59
e 13 71
e 13 79
e 13 84
e 13 88
e 13 92
e 13 94
e 13 99
e 13 100
e 13 101
e 13 102
e 13 103
e 13 104
e 13 119
e 13 146
e 13 159
e 13 172
e 13 173
e 13 224
e 14 15
e 14 16
e 14 18
e 14 23
e 14 31
e 14 35
e 14 43
e 14 44
e 14 45
e 14 60
e 14 64
e 14 72
e 14 80
e 14 85
e 14 89
e 14 95
e 14 99
e 14 100
e 14 101
e 14 102
e 14 103
e 14 104
e 14 109
e 14 120
e 14 146
e 14 172
e 14 225
e 14 262
e 15 16
e 15 19
e 15 24
e 15 32
e 15 36
e 15 43
e 15 44
e 15 45
e 15 61
e 15 65
e 15 90
e 15 93
e 15 96
e 15 99
e 15 100
e 15 101
e 15 102
e 15 103
e 15 104
e 15 110
e 15 116
e 15 121
e 15 127
e 15 146
e 15 160
e 15 172
e 15 263
e 16 20
e 16 25
e 16 33
e 16 37
e 16 43
e 16 44
e 16 45
e 16 62
e 16 66
e 16 73
e 16 81
e 16 86
e 16 97
e 16 99
e 16 100
e 16 101
e 16 102
e 16 103
e 16 104
e 16 111
e 16 117
e 16 128
e 16 146
e 16 172
e 16 174
e 16 226
e 17 18
e 17 19
e 17 20
e 17 22
e 17 30
e 17 34
e 17 46
e 17 47
e 17 48
e 17 49
e 17 50
e 17 59
e 17 71
e 17 78
e 17 79
e 17 84
e 17 88
e 17 92
e 17 94
e 17 105
e 17 106
e 17 107
e 17 108
e 17 119
e 17 148
e 17 159
e 17 173
e 17 175
e 17 224
e 18 19
e 18 20
e 18 23
e 18 31
e 18 35
e 18 46
e 18 47
e 18 48
e 18 49
e 18 50
e 18 60
e 18 64
e 18 72
e 18 78
e 18 80
e 18 85
e 18 89
e 18 95
e 18 105
e 18 106
e 18 107
e 18 108
e 18 109
e 18 120
e 18 148
e 18 175
e 18 225
e 18 262
e 19 20
e 19 24
e 19 32
e 19 36
e 19 46
e 19 47
e 19 48
e 19 49
e 19 50
e 19 61
e 19 65
e 19 78
e 19 90
e 19 93
e 19 96
e 19 105
e 19 106
e 19 107
e 19 108
e 19 110
e 19 116
e 19 121
e 19 127
e 19 148
e 19 160
e 19 175
e 19 263
e 20 25
e 20 33
e 20 37
e 20 46
e 20 47
e 20 48
e 20 49
e 20 50
e 20 62
e 20 66
e 20 73
e 20 78
e 20 81
e 20 86
e 20 97
e 20 105
e 20 106
e 20 107
e 20 108
e 20 111
e 20 117
e 20 128
e 20 148
e 20 174
e 20 175
e 20 226
e 21 26
e 21 27
e 21 28
e 21 29
e 21 38
e 21 39
e 21 41
e 21 51
e 21 57
e 21 77
e 21 79
e 21 80
e 21 81
e 21 122
e 21 149
e 21 150
e 21 151
e 21 152
e 21 153
e 21 176
e 21 208
e 21 209
e 21 210
e 22 23
e 22 24
e 22 25
e 22 30
e 22 34
e 22 52
e 22 53
e 22 54
e 22 55
e 22 59
e 22 71
e 22 79
e 22 83
e 22 84
e 22 88
e 22 92
e 22 94
e 22 112
e 22 113
e 22 114
e 22 115
e 22 119
e 22 154
e 22 159
e 22 173
e 22 180
e 22 224
e 23 24
e 23 25
e 23 31
e 23 35
e 23 52
e 23 53
e 23 54
e 23 55
e 23 60
e 23 64
e 23 72
e 23 80
e 23 83
e 23 85
e 23 89
e 23 95
e 23 109
e 23 112
e 23 113
e 23 114
e 23 115
e 23 120
e 23 154
e 23 180
e 23 225
e 23 262
e 24 25
e 24 32
e 24 36
e 24 52
e 24 53
e 24 54
e 24 55
e 24 61
e 24 65
e 24 83
e 24 90
e 24 93
e 24 96
e 24 110
e 24 112
e 24 113
e 24 114
e 24 115
e 24 116
e 24 121
e 24 127
e 24 154
e 24 160
e 24 180
e 24 263
e 25 33
e 25 37
e 25 52
e 25 53
e 25 54
e 25 55
e 25 62
e 25 66
e 25 73
e 25 81
e 25 83
e 25 86
e 25 97
e 25 111
e 25 112
e 25 113
e 25 114
e 25 115
e 25 117
e 25 128
e 25 154
e 25 174
e 25 180
e 25 226
e 26 27
e 26 28
e 26 29
e 26 38
e 26 39
e 26 41
e 26 56
e 26 57
e 26 77
e 26 84
e 26 85
e 26 86
e 26 122
e 26 155
e 26 156
e 26 157
e 26 158
e 26 181
e 26 211
e 26 212
e 26 213
e 26 214
e 27 28
e 27 29
e 27 38
e 27 39
e 27 41
e 27 57
e 27 58
e 27 77
e 27 88
e 27 89
e 27 90
e 27 122
e 27 161
e 27 162
e 27 163
e 27 185
e 27 218
e 27 219
e 27 220
e 27 221
e 27 222
e 28 29
e 28 38
e 28 39
e 28 41
e 28 57
e 28 63
e 28 77
e 28 92
e 28 93
e 28 122
e 28 165
e 28 166
e 28 167
e 28 192
e 28 228
e 28 229
e 28 230
e 28 231
e 28 232
e 28 256
e 29 38
e 29 39
e 29 41
e 29 57
e 29 77
e 29 94
e 29 95
e 29 96
e 29 97
e 29 122
e 29 168
e 29 169
e 29 233
e 29 234
e 29 235
e 29 236
e 29 237
e 29 238
e 30 31
e 30 32
e 30 33
e 30 34
e 30 59
e 30 67
e 30 68
e 30 69
e 30 70
e 30 71
e 30 79
e 30 84
e 30 88
e 30 92
e 30 94
e 30 119
e 30 133
e 30 134
e 30 135
e 30 136
e 30 137
e 30 159
e 30 173
e 30 202
e 30 224
e 31 32
e 31 33
e 31 35
e 31 60
e 31 64
e 31 67
e 31 68
e 31 69
e 31 70
e 31 72
e 31 80
e 31 85
e 31 89
e 31 95
e 31 109
e 31 120
e 31 133
e 31 134
e 31 135
e 31 136
e 31 137
e 31 202
e 31 225
e 31 262
e 32 33
e 32 36
e 32 61
e 32 65
e 32 67
e 32 68
e 32 69
e 32 70
e 32 90
e 32 93
e 32 96
e 32 110
e 32 116
e 32 121
e 32 127
e 32 133
e 32 134
e 32 135
e 32 136
e 32 137
e 32 160
e 32 202
e 32 263
e 33 37
e 33 62
e 33 66
e 33 67
e 33 68
e 33 69
e 33 70
e 33 73
e 33 81
e 33 86
e 33 97
e 33 111
e 33 117
e 33 128
e 33 133
e 33 134
e 33 135
e 33 136
e 33 137
e 33 174
e 33 202
e 33 226
e 34 35
e 34 36
e 34 37
e 34 59
e 34 71
e 34 74
e 34 75
e 34 76
e 34 79
e 34 84
e 34 88
e 34 92
e 34 94
e 34 98
e 34 119
e 34 141
e 34 142
e 34 143
e 34 144
e 34 145
e 34 159
e 34 171
e 34 173
e 34 224
e 35 36
e 35 37
e 35 60
e 35 64
e 35 72
e 35 74
e 35 75
e 35 76
e 35 80
e 35 85
e 35 89
e 35 95
e 35 98
e 35 109
e 35 120
e 35 141
e 35 142
e 35 143
e 35 144
e 35 145
e 35 171
e 35 225
e 35 262
e 36 37
e 36 61
e 36 65
e 36 74
e 36 75
e 36 76
e 36 90
e 36 93
e 36 96
e 36 98
e 36 110
e 36 116
e 36 121
e 36 127
e 36 141
e 36 142
e 36 143
e 36 144
e 36 145
e 36 160
e 36 171
e 36 263
e 37 62
e 37 66
e 37 73
e 37 74
e 37 75
e 37 76
e 37 81
e 37 86
e 37 97
e 37 98
e 37 111
e 37 117
e 37 128
e 37 141
e 37 142
e 37 143
e 37 144
e 37 145
e 37 171
e 37 174
e 37 226
e 38 39
e 38 41
e 38 57
e 38 77
e 38 82
e 38 109
e 38 110
e 38 111
e 38 122
e 38 177
e 38 178
e 38 179
e 38 244
e 38 245
e 38 246
e 38 247
e 38 276
e 39 41
e 39 57
e 39 77
e 39 87
e 39 116
e 39 117
e 39 122
e 39 182
e 39 183
e 39 184
e 39 215
e 39 248
e 39 249
e 39 250
e 39 264
e 39 277
e 40 42
e 40 51
e 40 56
e 40 58
e 40 59
e 40 60
e 40 61
e 40 62
e 40 63
e 40 82
e 40 87
e 40 91
e 40 118
e 40 123
e 40 124
e 40 125
e 40 126
e 40 147
e 40 164
e 40 189
e 40 190
e 40 191
e 40 227
e 40 243
e 40 255
e 41 57
e 41 77
e 41 122
e 41 127
e 41 128
e 41 193
e 41 194
e 41 195
e 41 196
e 41 257
e 41 258
e 41 259
e 41 260
e 41 273
e 41 280
e 42 51
e 42 56
e 42 58
e 42 63
e 42 71
e 42 72
e 42 73
e 42 82
e 42 87
e 42 91
e 42 118
e 42 138
e 42 139
e 42 140
e 42 147
e 42 170
e 42 189
e 42 203
e 42 204
e 42 205
e 42 206
e 42 207
e 42 243
e 43 44
e 43 45
e 43 46
e 43 52
e 43 67
e 43 99
e 43 100
e 43 101
e 43 102
e 43 103
e 43 104
e 43 123
e 43 129
e 43 138
e 43 146
e 43 149
e 43 155
e 43 172
e 43 182
e 43 186
e 43 193
e 43 216
e 43 281
e 44 45
e 44 47
e 44 53
e 44 68
e 44 74
e 44 99
e 44 100
e 44 101
e 44 102
e 44 103
e 44 104
e 44 124
e 44 130
e 44 139
e 44 146
e 44 150
e 44 156
e 44 161
e 44 172
e 44 177
e 44 183
e 44 240
e 45 48
e 45 54
e 45 69
e 45 99
e 45 100
e 45 101
e 45 102
e 45 103
e 45 104
e 45 125
e 45 146
e 45 151
e 45 157
e 45 165
e 45 172
e 45 184
e 45 187
e 45 194
e 45 241
e 45 270
e 45 282
e 46 47
e 46 48
e 46 49
e 46 50
e 46 52
e 46 67
e 46 78
e 46 105
e 46 106
e 46 107
e 46 108
e 46 123
e 46 129
e 46 138
e 46 148
e 46 149
e 46 155
e 46 175
e 46 182
e 46 186
e 46 193
e 46 216
e 46 281
e 47 48
e 47 49
e 47 50
e 47 53
e 47 68
e 47 74
e 47 78
e 47 105
e 47 106
e 47 107
e 47 108
e 47 124
e 47 130
e 47 139
e 47 148
e 47 150
e 47 156
e 47 161
e 47 175
e 47 177
e 47 183
e 47 240
e 48 49
e 48 50
e 48 54
e 48 69
e 48 78
e 48 105
e 48 106
e 48 107
e 48 108
e 48 125
e 48 148
e 48 151
e 48 157
e 48 165
e 48 175
e 48 184
e 48 187
e 48 194
e 48 241
e 48 270
e 48 282
e 49 50
e 49 75
e 49 78
e 49 105
e 49 106
e 49 107
e 49 108
e 49 131
e 49 140
e 49 148
e 49 152
e 49 158
e 49 162
e 49 166
e 49 168
e 49 175
e 49 178
e 49 188
e 49 195
e 49 217
e 49 271
e 50 55
e 50 70
e 50 76
e 50 78
e 50 105
e 50 106
e 50 107
e 50 108
e 50 126
e 50 132
e 50 148
e 50 153
e 50 163
e 50 167
e 50 169
e 50 175
e 50 179
e 50 196
e 50 242
e 50 272
e 51 56
e 51 58
e 51 63
e 51 79
e 51 80
e 51 81
e 51 82
e 51 87
e 51 91
e 51 118
e 51 147
e 51 149
e 51 150
e 51 151
e 51 152
e 51 153
e 51 176
e 51 189
e 51 208
e 51 209
e 51 210
e 51 243
e 52 53
e 52 54
e 52 55
e 52 67
e 52 83
e 52 112
e 52 113
e 52 114
e 52 115
e 52 123
e 52 129
e 52 138
e 52 149
e 52 154
e 52 155
e 52 180
e 52 182
e 52 186
e 52 193
e 52 216
e 52 281
e 53 54
e 53 55
e 53 68
e 53 74
e 53 83
e 53 112
e 53 113
e 53 114
e 53 115
e 53 124
e 53 130
e 53 139
e 53 150
e 53 154
e 53 156
e 53 161
e 53 177
e 53 180
e 53 183
e 53 240
e 54 55
e 54 69
e 54 83
e 54 112
e 54 113
e 54 114
e 54 115
e 54 125
e 54 151
e 54 154
e 54 157
e 54 165
e 54 180
e 54 184
e 54 187
e 54 194
e 54 241
e 54 270
e 54 282
e 55 70
e 55 76
e 55 83
e 55 112
e 55 113
e 55 114
e 55 115
e 55 126
e 55 132
e 55 153
e 55 154
e 55 163
e 55 167
e 55 169
e 55 179
e 55 180
e 55 196
e 55 242
e 55 272
e 56 58
e 56 63
e 56 82
e 56 84
e 56 85
e 56 86
e 56 87
e 56 91
e 56 118
e 56 147
e 56 155
e 56 156
e 56 157
e 56 158
e 56 181
e 56 189
e 56 211
e 56 212
e 56 213
e 56 214
e 56 243
e 57 77
e 57 118
e 57 122
e 57 159
e 57 160
e 57 216
e 57 217
e 57 265
e 57 266
e 57 267
e 57 268
e 57 269
e 57 278
e 58 63
e 58 82
e 58 87
e 58 88
e 58 89
e 58 90
e 58 91
e 58 118
e 58 147
e 58 161
e 58 162
e 58 163
e 58 185
e 58 189
e 58 218
e 58 219
e 58 220
e 58 221
e 58 222
e 58 243
e 59 60
e 59 61
e 59 62
e 59 71
e 59 79
e 59 84
e 59 88
e 59 92
e 59 94
e 59 119
e 59 123
e 59 124
e 59 125
e 59 126
e 59 159
e 59 164
e 59 173
e 59 190
e 59 191
e 59 224
e 59 227
e 59 255
e 60 61
e 60 62
e 60 64
e 60 72
e 60 80
e 60 85
e 60 89
e 60 95
e 60 109
e 60 120
e 60 123
e 60 124
e 60 125
e 60 126
e 60 164
e 60 190
e 60 191
e 60 225
e 60 227
e 60 255
e 60 262
e 61 62
e 61 65
e 61 90
e 61 93
e 61 96
e 61 110
e 61 116
e 61 121
e 61 123
e 61 124
e 61 125
e 61 126
e 61 127
e 61 160
e 61 164
e 61 190
e 61 191
e 61 227
e 61 255
e 61 263
e 62 66
e 62 73
e 62 81
e 62 86
e 62 97
e 62 111
e 62 117
e 62 123
e 62 124
e 62 125
e 62 126
e 62 128
e 62 164
e 62 174
e 62 190
e 62 191
e 62 226
e 62 227
e 62 255
e 63 82
e 63 87
e 63 91
e 63 92
e 63 93
e 63 118
e 63 147
e 63 165
e 63 166
e 63 167
e 63 189
e 63 192
e 63 228
e 63 229
e 63 230
e 63 231
e 63 232
e 63 243
e 63 256
e 64 65
e 64 66
e 64 72
e 64 80
e 64 85
e 64 89
e 64 95
e 64 109
e 64 120
e 64 129
e 64 130
e 64 131
e 64 132
e 64 197
e 64 198
e 64 199
e 64 200
e 64 201
e 64 225
e 64 239
e 64 262
e 65 66
e 65 90
e 65 93
e 65 96
e 65 110
e 65 116
e 65 121
e 65 127
e 65 129
e 65 130
e 65 131
e 65 132
e 65 160
e 65 197
e 65 198
e 65 199
e 65 200
e 65 201
e 65 239
e 65 263
e 66 73
e 66 81
e 66 86
e 66 97
e 66 111
e 66 117
e 66 128
e 66 129
e 66 130
e 66 131
e 66 132
e 66 174
e 66 197
e 66 198
e 66 199
e 66 200
e 66 201
e 66 226
e 66 239
e 67 68
e 67 69
e 67 70
e 67 123
e 67 129
e 67 133
e 67 134
e 67 135
e 67 136
e 67 137
e 67 138
e 67 149
e 67 155
e 67 182
e 67 186
e 67 193
e 67 202
e 67 216
e 67 281
e 68 69
e 68 70
e 68 74
e 68 124
e 68 130
e 68 133
e 68 134
e 68 135
e 68 136
e 68 137
e 68 139
e 68 150
e 68 156
e 68 161
e 68 177
e 68 183
e 68 202
e 68 240
e 69 70
e 69 125
e 69 133
e 69 134
e 69 135
e 69 136
e 69 137
e 69 151
e 69 157
e 69 165
e 69 184
e 69 187
e 69 194
e 69 202
e 69 241
e 69 270
e 69 282
e 70 76
e 70 126
e 70 132
e 70 133
e 70 134
e 70 135
e 70 136
e 70 137
e 70 153
e 70 163
e 70 167
e 70 169
e 70 179
e 70 196
e 70 202
e 70 242
e 70 272
e 71 72
e 71 73
e 71 79
e 71 84
e 71 88
e 71 92
e 71 94
e 71 119
e 71 138
e 71 139
e 71 140
e 71 159
e 71 170
e 71 173
e 71 203
e 71 204
e 71 205
e 71 206
e 71 207
e 71 224
e 72 73
e 72 80
e 72 85
e 72 89
e 72 95
e 72 109
e 72 120
e 72 138
e 72 139
e 72 140
e 72 170
e 72 203
e 72 204
e 72 205
e 72 206
e 72 207
e 72 225
e 72 262
e 73 81
e 73 86
e 73 97
e 73 111
e 73 117
e 73 128
e 73 138
e 73 139
e 73 140
e 73 170
e 73 174
e 73 203
e 73 204
e 73 205
e 73 206
e 73 207
e 73 226
e 74 75
e 74 76
e 74 98
e 74 124
e 74 130
e 74 139
e 74 141
e 74 142
e 74 143
e 74 144
e 74 145
e 74 150
e 74 156
e 74 161
e 74 171
e 74 177
e 74 183
e 74 240
e 75 76
e 75 98
e 75 131
e 75 140
e 75 141
e 75 142
e 75 143
e 75 144
e 75 145
e 75 152
e 75 158
e 75 162
e 75 166
e 75 168
e 75 171
e 75 178
e 75 188
e 75 195
e 75 217
e 75 271
e 76 98
e 76 126
e 76 132
e 76 141
e 76 142
e 76 143
e 76 144
e 76 145
e 76 153
e 76 163
e 76 167
e 76 169
e 76 171
e 76 179
e 76 196
e 76 242
e 76 272
e 77 122
e 77 147
e 77 173
e 77 174
e 77 240
e 77 241
e 77 242
e 77 261
e 77 274
e 77 275
e 77 285
e 78 83
e 78 98
e 78 105
e 78 106
e 78 107
e 78 108
e 78 148
e 78 164
e 78 170
e 78 175
e 78 176
e 78 181
e 78 185
e 78 192
e 78 215
e 78 223
e 78 261
e 78 286
e 79 80
e 79 81
e 79 84
e 79 88
e 79 92
e 79 94
e 79 119
e 79 149
e 79 150
e 79 151
e 79 152
e 79 153
e 79 159
e 79 173
e 79 176
e 79 208
e 79 209
e 79 210
e 79 224
e 80 81
e 80 85
e 80 89
e 80 95
e 80 109
e 80 120
e 80 149
e 80 150
e 80 151
e 80 152
e 80 153
e 80 176
e 80 208
e 80 209
e 80 210
e 80 225
e 80 262
e 81 86
e 81 97
e 81 111
e 81 117
e 81 128
e 81 149
e 81 150
e 81 151
e 81 152
e 81 153
e 81 174
e 81 176
e 81 208
e 81 209
e 81 210
e 81 226
e 82 87
e 82 91
e 82 109
e 82 110
e 82 111
e 82 118
e 82 147
e 82 177
e 82 178
e 82 179
e 82 189
e 82 243
e 82 244
e 82 245
e 82 246
e 82 247
e 82 276
e 83 98
e 83 112
e 83 113
e 83 114
e 83 115
e 83 154
e 83 164
e 83 170
e 83 176
e 83 180
e 83 181
e 83 185
e 83 192
e 83 215
e 83 223
e 83 261
e 83 286
e 84 85
e 84 86
e 84 88
e 84 92
e 84 94
e 84 119
e 84 155
e 84 156
e 84 157
e 84 158
e 84 159
e 84 173
e 84 181
e 84 211
e 84 212
e 84 213
e 84 214
e 84 224
e 85 86
e 85 89
e 85 95
e 85 109
e 85 120
e 85 155
e 85 156
e 85 157
e 85 158
e 85 181
e 85 211
e 85 212
e 85 213
e 85 214
e 85 225
e 85 262
e 86 97
e 86 111
e 86 117
e 86 128
e 86 155
e 86 156
e 86 157
e 86 158
e 86 174
e 86 181
e 86 211
e 86 212
e 86 213
e 86 214
e 86 226
e 87 91
e 87 116
e 87 117
e 87 118
e 87 147
e 87 182
e 87 183
e 87 184
e 87 189
e 87 215
e 87 243
e 87 248
e 87 249
e 87 250
e 87 264
e 87 277
e 88 89
e 88 90
e 88 92
e 88 94
e 88 119
e 88 159
e 88 161
e 88 162
e 88 163
e 88 173
e 88 185
e 88 218
e 88 219
e 88 220
e 88 221
e 88 222
e 88 224
e 89 90
e 89 95
e 89 109
e 89 120
e 89 161
e 89 162
e 89 163
e 89 185
e 89 218
e 89 219
e 89 220
e 89 221
e 89 222
e 89 225
e 89 262
e 90 93
e 90 96
e 90 110
e 90 116
e 90 121
e 90 127
e 90 160
e 90 161
e 90 162
e 90 163
e 90 185
e 90 218
e 90 219
e 90 220
e 90 221
e 90 222
e 90 263
e 91 118
e 91 119
e 91 120
e 91 121
e 91 147
e 91 186
e 91 187
e 91 188
e 91 189
e 91 223
e 91 243
e 91 251
e 91 252
e 91 253
e 91 254
e 91 279
e 92 93
e 92 94
e 92 119
e 92 159
e 92 165
e 92 166
e 92 167
e 92 173
e 92 192
e 92 224
e 92 228
e 92 229
e 92 230
e 92 231
e 92 232
e 92 256
e 93 96
e 93 110
e 93 116
e 93 121
e 93 127
e 93 160
e 93 165
e 93 166
e 93 167
e 93 192
e 93 228
e 93 229
e 93 230
e 93 231
e 93 232
e 93 256
e 93 263
e 94 95
e 94 96
e 94 97
e 94 119
e 94 159
e 94 168
e 94 169
e 94 173
e 94 224
e 94 233
e 94 234
e 94 235
e 94 236
e 94 237
e 94 238
e 95 96
e 95 97
e 95 109
e 95 120
e 95 168
e 95 169
e 95 225
e 95 233
e 95 234
e 95 235
e 95 236
e 95 237
e 95 238
e 95 262
e 96 97
e 96 110
e 96 116
e 96 121
e 96 127
e 96 160
e 96 168
e 96 169
e 96 233
e 96 234
e 96 235
e 96 236
e 96 237
e 96 238
e 96 263
e 97 111
e 97 117
e 97 128
e 97 168
e 97 169
e 97 174
e 97 226
e 97 233
e 97 234
e 97 235
e 97 236
e 97 237
e 97 238
e 98 141
e 98 142
e 98 143
e 98 144
e 98 145
e 98 164
e 98 170
e 98 171
e 98 176
e 98 181
e 98 185
e 98 192
e 98 215
e 98 223
e 98 261
e 98 286
e 99 100
e 99 101
e 99 102
e 99 103
e 99 104
e 99 112
e 99 133
e 99 141
e 99 146
e 99 172
e 99 197
e 99 203
e 99 211
e 99 218
e 99 233
e 99 248
e 99 251
e 99 257
e 100 101
e 100 102
e 100 103
e 100 104
e 100 105
e 100 113
e 100 146
e 100 172
e 100 198
e 100 208
e 100 219
e 100 228
e 100 234
e 100 249
e 100 258
e 100 265
e 100 283
e 101 102
e 101 103
e 101 104
e 101 134
e 101 142
e 101 146
e 101 172
e 101 190
e 101 204
e 101 209
e 101 212
e 101 229
e 101 235
e 101 259
e 101 266
e 101 274
e 102 103
e 102 104
e 102 114
e 102 135
e 102 143
e 102 146
e 102 172
e 102 205
e 102 220
e 102 236
e 102 244
e 102 250
e 102 252
e 102 260
e 102 267
e 103 104
e 103 107
e 103 136
e 103 146
e 103 172
e 103 200
e 103 207
e 103 213
e 103 222
e 103 231
e 103 246
e 103 254
e 103 268
e 103 287
e 104 108
e 104 115
e 104 137
e 104 145
e 104 146
e 104 172
e 104 201
e 104 214
e 104 232
e 104 238
e 104 247
e 104 269
e 104 275
e 105 106
e 105 107
e 105 108
e 105 113
e 105 148
e 105 175
e 105 198
e 105 208
e 105 219
e 105 228
e 105 234
e 105 249
e 105 258
e 105 265
e 105 283
e 106 107
e 106 108
e 106 144
e 106 148
e 106 175
e 106 191
e 106 199
e 106 206
e 106 210
e 106 221
e 106 230
e 106 237
e 106 245
e 106 253
e 106 284
e 107 108
e 107 136
e 107 148
e 107 175
e 107 200
e 107 207
e 107 213
e 107 222
e 107 231
e 107 246
e 107 254
e 107 268
e 107 287
e 108 115
e 108 137
e 108 145
e 108 148
e 108 175
e 108 201
e 108 214
e 108 232
e 108 238
e 108 247
e 108 269
e 108 275
e 109 110
e 109 111
e 109 120
e 109 177
e 109 178
e 109 179
e 109 225
e 109 244
e 109 245
e 109 246
e 109 247
e 109 262
e 109 276
e 110 111
e 110 116
e 110 121
e 110 127
e 110 160
e 110 177
e 110 178
e 110 179
e 110 244
e 110 245
e 110 246
e 110 247
e 110 263
e 110 276
e 111 117
e 111 128
e 111 174
e 111 177
e 111 178
e 111 179
e 111 226
e 111 244
e 111 245
e 111 246
e 111 247
e 111 276
e 112 113
e 112 114
e 112 115
e 112 133
e 112 141
e 112 154
e 112 180
e 112 197
e 112 203
e 112 211
e 112 218
e 112 233
e 112 248
e 112 251
e 112 257
e 113 114
e 113 115
e 113 154
e 113 180
e 113 198
e 113 208
e 113 219
e 113 228
e 113 234
e 113 249
e 113 258
e 113 265
e 113 283
e 114 115
e 114 135
e 114 143
e 114 154
e 114 180
e 114 205
e 114 220
e 114 236
e 114 244
e 114 250
e 114 252
e 114 260
e 114 267
e 115 137
e 115 145
e 115 154
e 115 180
e 115 201
e 115 214
e 115 232
e 115 238
e 115 247
e 115 269
e 115 275
e 116 117
e 116 121
e 116 127
e 116 160
e 116 182
e 116 183
e 116 184
e 116 215
e 116 248
e 116 249
e 116 250
e 116 263
e 116 264
e 116 277
e 117 128
e 117 174
e 117 182
e 117 183
e 117 184
e 117 215
e 117 226
e 117 248
e 117 249
e 117 250
e 117 264
e 117 277
e 118 147
e 118 159
e 118 160
e 118 189
e 118 216
e 118 217
e 118 243
e 118 265
e 118 266
e 118 267
e 118 268
e 118 269
e 118 278
e 119 120
e 119 121
e 119 159
e 119 173
e 119 186
e 119 187
e 119 188
e 119 223
e 119 224
e 119 251
e 119 252
e 119 253
e 119 254
e 119 279
e 120 121
e 120 186
e 120 187
e 120 188
e 120 223
e 120 225
e 120 251
e 120 252
e 120 253
e 120 254
e 120 262
e 120 279
e 121 127
e 121 160
e 121 186
e 121 187
e 121 188
e 121 223
e 121 251
e 121 252
e 121 253
e 121 254
e 121 263
e 121 279
e 122 189
e 122 224
e 122 225
e 122 226
e 122 270
e 122 271
e 122 272
e 122 283
e 122 284
e 123 124
e 123 125
e 123 126
e 123 129
e 123 138
e 123 149
e 123 155
e 123 164
e 123 182
e 123 186
e 123 190
e 123 191
e 123 193
e 123 216
e 123 227
e 123 255
e 123 281
e 124 125
e 124 126
e 124 130
e 124 139
e 124 150
e 124 156
e 124 161
e 124 164
e 124 177
e 124 183
e 124 190
e 124 191
e 124 227
e 124 240
e 124 255
e 125 126
e 125 151
e 125 157
e 125 164
e 125 165
e 125 184
e 125 187
e 125 190
e 125 191
e 125 194
e 125 227
e 125 241
e 125 255
e 125 270
e 125 282
e 126 132
e 126 153
e 126 163
e 126 164
e 126 167
e 126 169
e 126 179
e 126 190
e 126 191
e 126 196
e 126 227
e 126 242
e 126 255
e 126 272
e 127 128
e 127 160
e 127 193
e 127 194
e 127 195
e 127 196
e 127 257
e 127 258
e 127 259
e 127 260
e 127 263
e 127 273
e 127 280
e 128 174
e 128 193
e 128 194
e 128 195
e 128 196
e 128 226
e 128 257
e 128 258
e 128 259
e 128 260
e 128 273
e 128 280
e 129 130
e 129 131
e 129 132
e 129 138
e 129 149
e 129 155
e 129 182
e 129 186
e 129 193
e 129 197
e 129 198
e 129 199
e 129 200
e 129 201
e 129 216
e 129 239
e 129 281
e 130 131
e 130 132
e 130 139
e 130 150
e 130 156
e 130 161
e 130 177
e 130 183
e 130 197
e 130 198
e 130 199
e 130 200
e 130 201
e 130 239
e 130 240
e 131 132
e 131 140
e 131 152
e 131 158
e 131 162
e 131 166
e 131 168
e 131 178
e 131 188
e 131 195
e 131 197
e 131 198
e 131 199
e 131 200
e 131 201
e 131 217
e 131 239
e 131 271
e 132 153
e 132 163
e 132 167
e 132 169
e 132 179
e 132 196
e 132 197
e 132 198
e 132 199
e 132 200
e 132 201
e 132 239
e 132 242
e 132 272
e 133 134
e 133 135
e 133 136
e 133 137
e 133 141
e 133 197
e 133 202
e 133 203
e 133 211
e 133 218
e 133 233
e 133 248
e 133 251
e 133 257
e 134 135
e 134 136
e 134 137
e 134 142
e 134 190
e 134 202
e 134 204
e 134 209
e 134 212
e 134 229
e 134 235
e 134 259
e 134 266
e 134 274
e 135 136
e 135 137
e 135 143
e 135 202
e 135 205
e 135 220
e 135 236
e 135 244
e 135 250
e 135 252
e 135 260
e 135 267
e 136 137
e 136 200
e 136 202
e 136 207
e 136 213
e 136 222
e 136 231
e 136 246
e 136 254
e 136 268
e 136 287
e 137 145
e 137 201
e 137 202
e 137 214
e 137 232
e 137 238
e 137 247
e 137 269
e 137 275
e 138 139
e 138 140
e 138 149
e 138 155
e 138 170
e 138 182
e 138 186
e 138 193
e 138 203
e 138 204
e 138 205
e 138 206
e 138 207
e 138 216
e 138 281
e 139 140
e 139 150
e 139 156
e 139 161
e 139 170
e 139 177
e 139 183
e 139 203
e 139 204
e 139 205
e 139 206
e 139 207
e 139 240
e 140 152
e 140 158
e 140 162
e 140 166
e 140 168
e 140 170
e 140 178
e 140 188
e 140 195
e 140 203
e 140 204
e 140 205
e 140 206
e 140 207
e 140 217
e 140 271
e 141 142
e 141 143
e 141 144
e 141 145
e 141 171
e 141 197
e 141 203
e 141 211
e 141 218
e 141 233
e 141 248
e 141 251
e 141 257
e 142 143
e 142 144
e 142 145
e 142 171
e 142 190
e 142 204
e 142 209
e 142 212
e 142 229
e 142 235
e 142 259
e 142 266
e 142 274
e 143 144
e 143 145
e 143 171
e 143 205
e 143 220
e 143 236
e 143 244
e 143 250
e 143 252
e 143 260
e 143 267
e 144 145
e 144 171
e 144 191
e 144 199
e 144 206
e 144 210
e 144 221
e 144 230
e 144 237
e 144 245
e 144 253
e 144 284
e 145 171
e 145 201
e 145 214
e 145 232
e 145 238
e 145 247
e 145 269
e 145 275
e 146 148
e 146 154
e 146 171
e 146 172
e 146 227
e 146 239
e 146 256
e 146 264
e 146 273
e 146 278
e 146 288
e 147 173
e 147 174
e 147 189
e 147 240
e 147 241
e 147 242
e 147 243
e 147 261
e 147 274
e 147 275
e 147 285
e 148 154
e 148 171
e 148 175
e 148 227
e 148 239
e 148 256
e 148 264
e 148 273
e 148 278
e 148 288
e 149 150
e 149 151
e 149 152
e 149 153
e 149 155
e 149 176
e 149 182
e 149 186
e 149 193
e 149 208
e 149 209
e 149 210
e 149 216
e 149 281
e 150 151
e 150 152
e 150 153
e 150 156
e 150 161
e 150 176
e 150 177
e 150 183
e 150 208
e 150 209
e 150 210
e 150 240
e 151 152
e 151 153
e 151 157
e 151 165
e 151 176
e 151 184
e 151 187
e 151 194
e 151 208
e 151 209
e 151 210
e 151 241
e 151 270
e 151 282
e 152 153
e 152 158
e 152 162
e 152 166
e 152 168
e 152 176
e 152 178
e 152 188
e 152 195
e 152 208
e 152 209
e 152 210
e 152 217
e 152 271
e 153 163
e 153 167
e 153 169
e 153 176
e 153 179
e 153 196
e 153 208
e 153 209
e 153 210
e 153 242
e 153 272
e 154 171
e 154 180
e 154 227
e 154 239
e 154 256
e 154 264
e 154 273
e 154 278
e 154 288
e 155 156
e 155 157
e 155 158
e 155 181
e 155 182
e 155 186
e 155 193
e 155 211
e 155 212
e 155 213
e 155 214
e 155 216
e 155 281
e 156 157
e 156 158
e 156 161
e 156 177
e 156 181
e 156 183
e 156 211
e 156 212
e 156 213
e 156 214
e 156 240
e 157 158
e 157 165
e 157 181
e 157 184
e 157 187
e 157 194
e 157 211
e 157 212
e 157 213
e 157 214
e 157 241
e 157 270
e 157 282
e 158 162
e 158 166
e 158 168
e 158 178
e 158 181
e 158 188
e 158 195
e 158 211
e 158 212
e 158 213
e 158 214
e 158 217
e 158 271
e 159 160
e 159 173
e 159 216
e 159 217
e 159 224
e 159 265
e 159 266
e 159 267
e 159 268
e 159 269
e 159 278
e 160 216
e 160 217
e 160 263
e 160 265
e 160 266
e 160 267
e 160 268
e 160 269
e 160 278
e 161 162
e 161 163
e 161 177
e 161 183
e 161 185
e 161 218
e 161 219
e 161 220
e 161 221
e 161 222
e 161 240
e 162 163
e 162 166
e 162 168
e 162 178
e 162 185
e 162 188
e 162 195
e 162 217
e 162 218
e 162 219
e 162 220
e 162 221
e 162 222
e 162 271
e 163 167
e 163 169
e 163 179
e 163 185
e 163 196
e 163 218
e 163 219
e 163 220
e 163 221
e 163 222
e 163 242
e 163 272
e 164 170
e 164 176
e 164 181
e 164 185
e 164 190
e 164 191
e 164 192
e 164 215
e 164 223
e 164 227
e 164 255
e 164 261
e 164 286
e 165 166
e 165 167
e 165 184
e 165 187
e 165 192
e 165 194
e 165 228
e 165 229
e 165 230
e 165 231
e 165 232
e 165 241
e 165 256
e 165 270
e 165 282
e 166 167
e 166 168
e 166 178
e 166 188
e 166 192
e 166 195
e 166 217
e 166 228
e 166 229
e 166 230
e 166 231
e 166 232
e 166 256
e 166 271
e 167 169
e 167 179
e 167 192
e 167 196
e 167 228
e 167 229
e 167 230
e 167 231
e 167 232
e 167 242
e 167 256
e 167 272
e 168 169
e 168 178
e 168 188
e 168 195
e 168 217
e 168 233
e 168 234
e 168 235
e 168 236
e 168 237
e 168 238
e 168 271
e 169 179
e 169 196
e 169 233
e 169 234
e 169 235
e 169 236
e 169 237
e 169 238
e 169 242
e 169 272
e 170 176
e 170 181
e 170 185
e 170 192
e 170 203
e 170 204
e 170 205
e 170 206
e 170 207
e 170 215
e 170 223
e 170 261
e 170 286
e 171 227
e 171 239
e 171 256
e 171 264
e 171 273
e 171 278
e 171 288
e 172 175
e 172 180
e 172 202
e 172 255
e 172 276
e 172 277
e 172 279
e 172 280
e 172 285
e 173 174
e 173 224
e 173 240
e 173 241
e 173 242
e 173 261
e 173 274
e 173 275
e 173 285
e 174 226
e 174 240
e 174 241
e 174 242
e 174 261
e 174 274
e 174 275
e 174 285
e 175 180
e 175 202
e 175 255
e 175 276
e 175 277
e 175 279
e 175 280
e 175 285
e 176 181
e 176 185
e 176 192
e 176 208
e 176 209
e 176 210
e 176 215
e 176 223
e 176 261
e 176 286
e 177 178
e 177 179
e 177 183
e 177 240
e 177 244
e 177 245
e 177 246
e 177 247
e 177 276
e 178 179
e 178 188
e 178 195
e 178 217
e 178 244
e 178 245
e 178 246
e 178 247
e 178 271
e 178 276
e 179 196
e 179 242
e 179 244
e 179 245
e 179 246
e 179 247
e 179 272
e 179 276
e 180 202
e 180 255
e 180 276
e 180 277
e 180 279
e 180 280
e 180 285
e 181 185
e 181 192
e 181 211
e 181 212
e 181 213
e 181 214
e 181 215
e 181 223
e 181 261
e 181 286
e 182 183
e 182 184
e 182 186
e 182 193
e 182 215
e 182 216
e 182 248
e 182 249
e 182 250
e 182 264
e 182 277
e 182 281
e 183 184
e 183 215
e 183 240
e 183 248
e 183 249
e 183 250
e 183 264
e 183 277
e 184 187
e 184 194
e 184 215
e 184 241
e 184 248
e 184 249
e 184 250
e 184 264
e 184 270
e 184 277
e 184 282
e 185 192
e 185 215
e 185 218
e 185 219
e 185 220
e 185 221
e 185 222
e 185 223
e 185 261
e 185 286
e 186 187
e 186 188
e 186 193
e 186 216
e 186 223
e 186 251
e 186 252
e 186 253
e 186 254
e 186 279
e 186 281
e 187 188
e 187 194
e 187 223
e 187 241
e 187 251
e 187 252
e 187 253
e 187 254
e 187 270
e 187 279
e 187 282
e 188 195
e 188 217
e 188 223
e 188 251
e 188 252
e 188 253
e 188 254
e 188 271
e 188 279
e 189 224
e 189 225
e 189 226
e 189 243
e 189 270
e 189 271
e 189 272
e 189 283
e 189 284
e 190 191
e 190 204
e 190 209
e 190 212
e 190 227
e 190 229
e 190 235
e 190 255
e 190 259
e 190 266
e 190 274
e 191 199
e 191 206
e 191 210
e 191 221
e 191 227
e 191 230
e 191 237
e 191 245
e 191 253
e 191 255
e 191 284
e 192 215
e 192 223
e 192 228
e 192 229
e 192 230
e 192 231
e 192 232
e 192 256
e 192 261
e 192 286
e 193 194
e 193 195
e 193 196
e 193 216
e 193 257
e 193 258
e 193 259
e 193 260
e 193 273
e 193 280
e 193 281
e 194 195
e 194 196
e 194 241
e 194 257
e 194 258
e 194 259
e 194 260
e 194 270
e 194 273
e 194 280
e 194 282
e 195 196
e 195 217
e 195 257
e 195 258
e 195 259
e 195 260
e 195 271
e 195 273
e 195 280
e 196 242
e 196 257
e 196 258
e 196 259
e 196 260
e 196 272
e 196 273
e 196 280
e 197 198
e 197 199
e 197 200
e 197 201
e 197 203
e 197 211
e 197 218
e 197 233
e 197 239
e 197 248
e 197 251
e 197 257
e 198 199
e 198 200
e 198 201
e 198 208
e 198 219
e 198 228
e 198 234
e 198 239
e 198 249
e 198 258
e 198 265
e 198 283
e 199 200
e 199 201
e 199 206
e 199 210
e 199 221
e 199 230
e 199 237
e 199 239
e 199 245
e 199 253
e 199 284
e 200 201
e 200 207
e 200 213
e 200 222
e 200 231
e 200 239
e 200 246
e 200 254
e 200 268
e 200 287
e 201 214
e 201 232
e 201 238
e 201 239
e 201 247
e 201 269
e 201 275
e 202 255
e 202 276
e 202 277
e 202 279
e 202 280
e 202 285
e 203 204
e 203 205
e 203 206
e 203 207
e 203 211
e 203 218
e 203 233
e 203 248
e 203 251
e 203 257
e 204 205
e 204 206
e 204 207
e 204 209
e 204 212
e 204 229
e 204 235
e 204 259
e 204 266
e 204 274
e 205 206
e 205 207
e 205 220
e 205 236
e 205 244
e 205 250
e 205 252
e 205 260
e 205 267
e 206 207
e 206 210
e 206 221
e 206 230
e 206 237
e 206 245
e 206 253
e 206 284
e 207 213
e 207 222
e 207 231
e 207 246
e 207 254
e 207 268
e 207 287
e 208 209
e 208 210
e 208 219
e 208 228
e 208 234
e 208 249
e 208 258
e 208 265
e 208 283
e 209 210
e 209 212
e 209 229
e 209 235
e 209 259
e 209 266
e 209 274
e 210 221
e 210 230
e 210 237
e 210 245
e 210 253
e 210 284
e 211 212
e 211 213
e 211 214
e 211 218
e 211 233
e 211 248
e 211 251
e 211 257
e 212 213
e 212 214
e 212 229
e 212 235
e 212 259
e 212 266
e 212 274
e 213 214
e 213 222
e 213 231
e 213 246
e 213 254
e 213 268
e 213 287
e 214 232
e 214 238
e 214 247
e 214 269
e 214 275
e 215 223
e 215 248
e 215 249
e 215 250
e 215 261
e 215 264
e 215 277
e 215 286
e 216 217
e 216 265
e 216 266
e 216 267
e 216 268
e 216 269
e 216 278
e 216 281
e 217 265
e 217 266
e 217 267
e 217 268
e 217 269
e 217 271
e 217 278
e 218 219
e 218 220
e 218 221
e 218 222
e 218 233
e 218 248
e 218 251
e 218 257
e 219 220
e 219 221
e 219 222
e 219 228
e 219 234
e 219 249
e 219 258
e 219 265
e 219 283
e 220 221
e 220 222
e 220 236
e 220 244
e 220 250
e 220 252
e 220 260
e 220 267
e 221 222
e 221 230
e 221 237
e 221 245
e 221 253
e 221 284
e 222 231
e 222 246
e 222 254
e 222 268
e 222 287
e 223 251
e 223 252
e 223 253
e 223 254
e 223 261
e 223 279
e 223 286
e 224 225
e 224 226
e 224 270
e 224 271
e 224 272
e 224 283
e 224 284
e 225 226
e 225 262
e 225 270
e 225 271
e 225 272
e 225 283
e 225 284
e 226 270
e 226 271
e 226 272
e 226 283
e 226 284
e 227 239
e 227 255
e 227 256
e 227 264
e 227 273
e 227 278
e 227 288
e 228 229
e 228 230
e 228 231
e 228 232
e 228 234
e 228 249
e 228 256
e 228 258
e 228 265
e 228 283
e 229 230
e 229 231
e 229 232
e 229 235
e 229 256
e 229 259
e 229 266
e 229 274
e 230 231
e 230 232
e 230 237
e 230 245
e 230 253
e 230 256
e 230 284
e 231 232
e 231 246
e 231 254
e 231 256
e 231 268
e 231 287
e 232 238
e 232 247
e 232 256
e 232 269
e 232 275
e 233 234
e 233 235
e 233 236
e 233 237
e 233 238
e 233 248
e 233 251
e 233 257
e 234 235
e 234 236
e 234 237
e 234 238
e 234 249
e 234 258
e 234 265
e 234 283
e 235 236
e 235 237
e 235 238
e 235 259
e 235 266
e 235 274
e 236 237
e 236 238
e 236 244
e 236 250
e 236 252
e 236 260
e 236 267
e 237 238
e 237 245
e 237 253
e 237 284
e 238 247
e 238 269
e 238 275
e 239 256
e 239 264
e 239 273
e 239 278
e 239 288
e 240 241
e 240 242
e 240 261
e 240 274
e 240 275
e 240 285
e 241 242
e 241 261
e 241 270
e 241 274
e 241 275
e 241 282
e 241 285
e 242 261
e 242 272
e 242 274
e 242 275
e 242 285
e 243 262
e 243 263
e 243 281
e 243 282
e 243 286
e 243 287
e 243 288
e 244 245
e 244 246
e 244 247
e 244 250
e 244 252
e 244 260
e 244 267
e 244 276
e 245 246
e 245 247
e 245 253
e 245 276
e 245 284
e 246 247
e 246 254
e 246 268
e 246 276
e 246 287
e 247 269
e 247 275
e 247 276
e 248 249
e 248 250
e 248 251
e 248 257
e 248 264
e 248 277
e 249 250
e 249 258
e 249 264
e 249 265
e 249 277
e 249 283
e 250 252
e 250 260
e 250 264
e 250 267
e 250 277
e 251 252
e 251 253
e 251 254
e 251 257
e 251 279
e 252 253
e 252 254
e 252 260
e 252 267
e 252 279
e 253 254
e 253 279
e 253 284
e 254 268
e 254 279
e 254 287
e 255 276
e 255 277
e 255 279
e 255 280
e 255 285
e 256 264
e 256 273
e 256 278
e 256 288
e 257 258
e 257 259
e 257 260
e 257 273
e 257 280
e 258 259
e 258 260
e 258 265
e 258 273
e 258 280
e 258 283
e 259 260
e 259 266
e 259 273
e 259 274
e 259 280
e 260 267
e 260 273
e 260 280
e 261 274
e 261 275
e 261 285
e 261 286
e 262 263
e 262 281
e 262 282
e 262 286
e 262 287
e 262 288
e 263 281
e 263 282
e 263 286
e 263 287
e 263 288
e 264 273
e 264 277
e 264 278
e 264 288
e 265 266
e 265 267
e 265 268
e 265 269
e 265 278
e 265 283
e 266 267
e 266 268
e 266 269
e 266 274
e 266 278
e 267 268
e 267 269
e 267 278
e 268 269
e 268 278
e 268 287
e 269 275
e 269 278
e 270 271
e 270 272
e 270 282
e 270 283
e 270 284
e 271 272
e 271 283
e 271 284
e 272 283
e 272 284
e 273 278
e 273 280
e 273 288
e 274 275
e 274 285
e 275 285
e 276 277
e 276 279
e 276 280
e 276 285
e 277 279
e 277 280
e 277 285
e 278 288
e 279 280
e 279 285
e 280 285
e 281 282
e 281 286
e 281 287
e 281 288
e 282 286
e 282 287
e 282 288
e 283 284
e 286 287
e 286 288
e 287 288
